solutions/Insertion/cheapest/E-n76-k7.txt
[[[75], [75, 68], [75, 6, 68], [75, 6, 2, 68], [75, 6, 2, 30, 68], [75, 6, 2, 74, 30, 68], [75, 6, 2, 74, 30, 4, 68], [75, 6, 2, 74, 30, 45, 4, 68], [75, 6, 2, 74, 30, 29, 45, 4, 68], [75, 6, 2, 74, 30, 48, 29, 45, 4, 68], [75, 6, 2, 74, 30, 48, 29, 27, 45, 4, 68], [75, 6, 2, 74, 30, 48, 29, 27, 45, 4, 68]], [[67], [67, 26], [67, 17, 26], [67, 51, 17, 26], [67, 51, 40, 17, 26], [67, 51, 40, 12, 17, 26], [67, 51, 40, 12, 17, 26, 34], [67, 51, 40, 12, 17, 26, 34, 46], [67, 51, 40, 12, 17, 26, 34, 46, 52], [67, 51, 40, 12, 17, 26, 34, 46, 52, 8], [67, 51, 40, 12, 17, 26, 34, 46, 52, 8, 35], [67, 51, 40, 12, 17, 26, 34, 46, 52, 8, 35]], [[7], [7, 53], [7, 53, 14], [7, 53, 14, 19], [7, 53, 11, 14, 19], [7, 53, 38, 11, 14, 19], [7, 53, 38, 65, 11, 14, 19], [7, 53, 38, 65, 66, 11, 14, 19], [7, 53, 38, 65, 66, 11, 14, 19, 54], [7, 53, 38, 65, 66, 11, 14, 19, 13, 54], [7, 53, 38, 65, 66, 11, 14, 19, 13, 54]], [[33], [33, 73], [33, 73, 1], [33, 73, 1, 63], [33, 73, 1, 63, 16], [33, 73, 1, 63, 16, 3], [33, 73, 1, 63, 16, 3, 44], [33, 73, 1, 63, 16, 3, 32, 44], [33, 73, 1, 63, 16, 3, 50, 32, 44], [33, 73, 1, 63, 16, 3, 50, 9, 32, 44], [33, 73, 1, 63, 16, 3, 50, 9, 39, 32, 44], [33, 73, 1, 63, 16, 3, 50, 9, 72, 39, 32, 44], [33, 73, 1, 63, 16, 3, 50, 25, 9, 72, 39, 32, 44], [33, 73, 1, 63, 16, 3, 50, 25, 9, 72, 39, 32, 44]], [[58], [58, 10], [58, 10, 31], [58, 10, 31, 55], [58, 10, 31, 18, 55], [58, 10, 31, 18, 24, 55], [58, 10, 31, 18, 24, 49, 55], [58, 10, 31, 18, 24, 49, 23, 55], [58, 10, 31, 18, 24, 49, 56, 23, 55], [58, 10, 31, 18, 24, 49, 56, 41, 23, 55], [58, 10, 31, 18, 24, 49, 56, 41, 43, 23, 55], [58, 10, 31, 18, 24, 49, 56, 41, 43, 42, 23, 55], [58, 10, 31, 18, 24, 49, 56, 41, 43, 42, 22, 23, 55], [58, 10, 31, 18, 24, 49, 56, 41, 43, 42, 22, 23, 55]], [[62], [62, 28], [62, 28, 21], [62, 28, 21, 61], [62, 28, 21, 61, 47], [62, 28, 21, 61, 47, 5], [62, 28, 21, 61, 47, 36, 5], [62, 28, 21, 61, 47, 36, 37, 5], [62, 28, 21, 61, 47, 36, 37, 15, 5], [62, 28, 21, 61, 47, 36, 37, 15, 57, 5], [62, 28, 21, 61, 47, 36, 37, 20, 15, 57, 5], [62, 28, 21, 61, 47, 36, 37, 70, 20, 15, 57, 5], [62, 28, 21, 61, 47, 36, 37, 70, 20, 15, 57, 5]], [[69], [69, 71], [69, 71, 60], [69, 71, 60, 64], [69, 71, 60, 64, 59], [69, 71, 60, 64, 59]]]