solutions/Insertion/cheapest/E-n76-k7.sol
Route #1: 75 6 2 74 30 48 29 27 45 4 68
Route #2: 67 51 40 12 17 26 34 46 52 8 35
Route #3: 7 53 38 65 66 11 14 19 13 54
Route #4: 33 73 1 63 16 3 50 25 9 72 39 32 44
Route #5: 58 10 31 18 24 49 56 41 43 42 22 23 55
Route #6: 62 28 21 61 47 36 37 70 20 15 57 5
Route #7: 69 71 60 64 59
cost: 1041
